Route #1: 8 9 10 15 28 21 27 40 32 41 33 34 22 23 16 11 1 17 2 3 18 30 29 24 42 45 46 35 36 31 12 13 25 14 4 5 19 6 7 20 39 26 38 37 48 47 61 60 72 67 54 49 50 55 68 79 78 89 88 96 100 95 87 77 83 86 99 98 94 82 76 71 59 58 66 53 44 52 51 64 75 65 69 70 81 93 85 92 91 80 74 63 57 43 56 62 73 84 90 97
Cost 47295
